language Essence 1.3

letting class be function(1 --> 3, 2 --> 3, 3 --> 2, 4 --> 1, 5 --> 3, 6 --> 3, 7 --> 3, 8 --> 3, 9 --> 3)
letting deck_length be 17
letting deck_width be 37
letting length be function(1 --> 11, 2 --> 9, 3 --> 9, 4 --> 5, 5 --> 11, 6 --> 17, 7 --> 11, 8 --> 17, 9 --> 13)
letting n_classes be 3
letting n_containers be 9
letting separation be function({2, 3} --> 21)
letting width be function(1 --> 5, 2 --> 1, 3 --> 1, 4 --> 2, 5 --> 3, 6 --> 10, 7 --> 1, 8 --> 14, 9 --> 2)
